\ENCODING=ISO-8859-1
\Problem name: ilog.cplex

Minimize
 obj1: 96414 x1 + 92029 x2 + 104634 x3 + 102616 x4 + 108157 x5 + 104504 x6
       + 99439 x7 + 95881 x8 + 101957 x9 + 91002 x10 + 107390 x11 + 94579 x12
       + 107885 x13 + 92694 x14 + 105131 x15 + 100007 x16 + 98934 x17
       + 103856 x18 + 99478 x19 + 107103 x20 + 91228 x21 + 102122 x22
       + 109822 x23 + 95054 x24 + 93675 x25 + 91711 x26 + 92387 x27 + 91858 x28
       + 107414 x29 + 107053 x30 + 105321 x31 + 106889 x32 + 109123 x33
       + 100092 x34 + 102718 x35 + 109094 x36 + 101670 x37 + 90928 x38
       + 100350 x39 + 102688 x40 + 100618 x41 + 98531 x42 + 96241 x43
       + 97104 x44 + 105734 x45 + 105935 x46 + 95143 x47 + 103414 x48
       + 102893 x49 + 92613 x50 + 97593 x51 + 95559 x52 + 93719 x53
       + 105675 x54 + 91401 x55 + 91476 x56 + 97771 x57 + 101054 x58
       + 106288 x59 + 96555 x60 + 109865 x61 + 96992 x62 + 95391 x63
       + 104779 x64 + 102187 x65 + 102846 x66 + 94394 x67 + 100272 x68
       + 94130 x69 + 99637 x70 + 104856 x71 + 109237 x72 + 92496 x73
       + 95488 x74 + 91988 x75 + 107210 x76 + 103497 x77 + 108585 x78
       + 94016 x79 + 98779 x80 + 92599 x81 + 105346 x82 + 99969 x83 + 92892 x84
       + 102465 x85 + 95483 x86 + 105754 x87 + 103839 x88 + 92838 x89
       + 99591 x90 + 103775 x91 + 97232 x92 + 109221 x93 + 108652 x94
       + 107173 x95 + 99376 x96 + 100780 x97 + 94266 x98 + 96159 x99
       + 93119 x100 + 92179 x101 + 103405 x102 + 101002 x103 + 93638 x104
       + 108887 x105 + 102164 x106 + 103871 x107 + 93527 x108 + 100993 x109
       + 99222 x110 + 90070 x111 + 108175 x112 + 106696 x113 + 101656 x114
       + 108082 x115 + 99607 x116 + 103351 x117 + 93226 x118 + 107448 x119
       + 109801 x120 + 92952 x121 + 103902 x122 + 104435 x123 + 109816 x124
       + 100222 x125 + 95129 x126 + 97147 x127 + 107142 x128 + 100255 x129
       + 106623 x130 + 108217 x131 + 96643 x132 + 94019 x133 + 94378 x134
       + 104770 x135 + 109190 x136 + 103549 x137 + 106965 x138 + 105427 x139
       + 102761 x140 + 100696 x141 + 107704 x142 + 92860 x143 + 90420 x144
       + 94237 x145 + 105103 x146 + 95654 x147 + 96901 x148 + 91496 x149
       + 98224 x150 + 90449 x151 + 106875 x152 + 94117 x153 + 96622 x154
       + 109052 x155 + 103780 x156 + 96684 x157 + 98127 x158 + 104644 x159
       + 94506 x160 + 91604 x161 + 101960 x162 + 96194 x163 + 92311 x164
       + 104007 x165 + 99556 x166 + 90861 x167 + 107970 x168 + 106350 x169
       + 100940 x170 + 100417 x171 + 97514 x172 + 94028 x173 + 100623 x174
       + 99635 x175 + 93797 x176 + 100468 x177 + 103724 x178 + 102088 x179
       + 108709 x180 + 93007 x181 + 99562 x182 + 94509 x183 + 109266 x184
       + 101566 x185 + 109261 x186 + 101576 x187 + 100153 x188 + 93238 x189
       + 91764 x190 + 109295 x191 + 94211 x192 + 96595 x193 + 103016 x194
       + 105015 x195 + 96089 x196 + 95487 x197 + 97987 x198 + 94056 x199
       + 100173 x200 + 91647 x201 + 106609 x202 + 104373 x203 + 93920 x204
       + 105521 x205 + 91590 x206 + 94645 x207 + 107937 x208 + 101010 x209
       + 94583 x210 + 95273 x211 + 99078 x212 + 105050 x213 + 90659 x214
       + 94749 x215 + 96572 x216 + 98677 x217 + 90080 x218 + 97455 x219
       + 100609 x220 + 102734 x221 + 91121 x222 + 103234 x223 + 97823 x224
       + 108359 x225 + 97992 x226 + 93876 x227 + 108749 x228 + 90104 x229
       + 93866 x230 + 97208 x231 + 108617 x232 + 107834 x233 + 100624 x234
       + 95562 x235 + 104721 x236 + 92470 x237 + 104111 x238 + 92120 x239
       + 91132 x240 + 94681 x241 + 109906 x242 + 106187 x243 + 95229 x244
       + 94866 x245 + 109568 x246 + 108379 x247 + 104191 x248 + 104788 x249
       + 108379 x250 + 101961 x251 + 103778 x252 + 100187 x253 + 103939 x254
       + 90145 x255 + 109305 x256 + 99336 x257 + 106098 x258 + 106102 x259
       + 94190 x260 + 107792 x261 + 92554 x262 + 109988 x263 + 97252 x264
       + 108909 x265 + 105180 x266 + 96374 x267 + 93619 x268 + 103543 x269
       + 90594 x270 + 108869 x271 + 101510 x272 + 100508 x273 + 103687 x274
       + 102188 x275 + 90184 x276 + 93127 x277 + 108610 x278 + 100999 x279
       + 97928 x280 + 106608 x281 + 108128 x282 + 99585 x283 + 103216 x284
       + 105995 x285 + 109355 x286 + 106691 x287 + 97035 x288 + 95093 x289
       + 91495 x290 + 105883 x291 + 99839 x292 + 93031 x293 + 99556 x294
       + 93339 x295 + 92735 x296 + 107024 x297 + 106924 x298 + 92167 x299
       + 109226 x300 + 101198 x301 + 94196 x302 + 92043 x303 + 96837 x304
       + 90843 x305 + 103090 x306 + 96041 x307 + 107869 x308 + 108794 x309
       + 93430 x310 + 104092 x311 + 108420 x312 + 98022 x313 + 90393 x314
       + 97520 x315 + 97586 x316 + 92881 x317 + 99561 x318 + 90902 x319
       + 90835 x320 + 103182 x321 + 93140 x322 + 98310 x323 + 92020 x324
       + 104296 x325 + 104073 x326 + 107794 x327 + 109334 x328 + 96028 x329
       + 96770 x330 + 105437 x331 + 102291 x332 + 105348 x333 + 91330 x334
       + 95493 x335 + 100302 x336 + 91068 x337 + 101922 x338 + 108929 x339
       + 92498 x340 + 102175 x341 + 109356 x342 + 99115 x343 + 93134 x344
       + 105750 x345 + 102911 x346 + 90441 x347 + 97273 x348 + 95266 x349
       + 97131 x350 + 93337 x351 + 97384 x352 + 95579 x353 + 95566 x354
       + 107467 x355 + 93076 x356 + 96987 x357 + 95331 x358 + 103785 x359
       + 93395 x360 + 103956 x361 + 109940 x362 + 92494 x363 + 99762 x364
       + 109608 x365 + 98002 x366 + 99898 x367 + 97123 x368 + 107460 x369
       + 104983 x370 + 103535 x371 + 98362 x372 + 94749 x373 + 106924 x374
       + 96385 x375 + 106432 x376 + 91408 x377 + 102735 x378 + 102594 x379
       + 105063 x380 + 98119 x381 + 103870 x382 + 96580 x383 + 93315 x384
       + 97233 x385 + 107396 x386 + 97143 x387 + 100872 x388 + 96154 x389
       + 107977 x390 + 90628 x391 + 103231 x392 + 90580 x393 + 106714 x394
       + 95324 x395 + 91110 x396 + 108498 x397 + 107716 x398 + 93076 x399
       + 104214 x400 + 104882 x401 + 96923 x402 + 103459 x403 + 95894 x404
       + 91755 x405 + 91939 x406 + 100888 x407 + 92316 x408 + 108610 x409
       + 96475 x410 + 95694 x411 + 107419 x412 + 104155 x413 + 108515 x414
       + 96448 x415 + 93238 x416 + 91894 x417 + 97414 x418 + 102724 x419
       + 104101 x420 + 92755 x421 + 93223 x422 + 108188 x423 + 91558 x424
       + 96664 x425 + 92301 x426 + 105847 x427 + 100976 x428 + 93492 x429
       + 91937 x430 + 106764 x431 + 93265 x432 + 106255 x433 + 106221 x434
       + 92949 x435 + 102649 x436 + 100636 x437 + 97192 x438 + 107839 x439
       + 100674 x440 + 99653 x441 + 92498 x442 + 106742 x443 + 99610 x444
       + 104170 x445 + 109121 x446 + 93007 x447 + 102960 x448 + 91660 x449
       + 103087 x450 + 108295 x451 + 102465 x452 + 90189 x453 + 92887 x454
       + 97678 x455 + 109085 x456 + 109750 x457 + 97791 x458 + 93249 x459
       + 109250 x460 + 98900 x461 + 91328 x462 + 93611 x463 + 97039 x464
       + 101054 x465 + 94909 x466 + 100766 x467 + 107986 x468 + 91862 x469
       + 106901 x470 + 90862 x471 + 90834 x472 + 106754 x473 + 98408 x474
       + 100691 x475 + 99852 x476 + 96053 x477 + 108629 x478 + 107984 x479
       + 92209 x480 + 92414 x481 + 97353 x482 + 104750 x483 + 104315 x484
       + 99000 x485 + 100227 x486 + 98053 x487 + 96635 x488 + 97364 x489
       + 100995 x490 + 106775 x491 + 93172 x492 + 107111 x493 + 90544 x494
       + 105392 x495 + 106755 x496 + 92226 x497 + 101593 x498 + 95657 x499
       + 99779 x500 + 98073 x501 + 92281 x502 + 92760 x503 + 90557 x504
       + 90487 x505 + 90297 x506 + 105769 x507 + 92769 x508 + 99101 x509
       + 97766 x510 + 92579 x511 + 109164 x512 + 109591 x513 + 91679 x514
       + 107408 x515 + 103071 x516 + 107647 x517 + 109815 x518 + 102343 x519
       + 104219 x520 + 91269 x521 + 107901 x522 + 93510 x523 + 109026 x524
       + 97362 x525 + 90206 x526 + 97158 x527 + 109724 x528 + 93634 x529
       + 92769 x530 + 101291 x531 + 91548 x532 + 107447 x533 + 96200 x534
       + 104409 x535 + 92737 x536 + 99524 x537 + 103232 x538 + 104521 x539
       + 108166 x540 + 94213 x541 + 90515 x542 + 100918 x543 + 97112 x544
       + 99771 x545 + 93680 x546 + 92431 x547 + 100957 x548 + 106364 x549
       + 101080 x550 + 101270 x551 + 93756 x552 + 108898 x553 + 101518 x554
       + 92331 x555 + 107731 x556 + 107823 x557 + 92339 x558 + 92878 x559
       + 98285 x560 + 93370 x561 + 96718 x562 + 97713 x563 + 107554 x564
       + 102971 x565 + 109851 x566 + 94570 x567 + 95478 x568 + 104135 x569
       + 91504 x570 + 97787 x571 + 98892 x572 + 96741 x573 + 94903 x574
       + 102845 x575 + 107006 x576 + 101117 x577 + 90106 x578 + 99520 x579
       + 95088 x580 + 101228 x581 + 103749 x582 + 107236 x583 + 97224 x584
       + 105921 x585 + 96458 x586 + 102602 x587 + 103783 x588 + 95436 x589
       + 94256 x590 + 96161 x591 + 99505 x592 + 95203 x593 + 100902 x594
       + 103089 x595 + 94100 x596 + 104492 x597 + 104406 x598 + 100856 x599
       + 222385 x600 + 431228 x601 + 367100 x602 + 383493 x603 + 360812 x604
       + 401055 x605 + 372156 x606 + 378285 x607 + 416419 x608 + 403724 x609
       + 435190 x610 + 402394 x611 + 396928 x612 + 370735 x613 + 388507 x614
       + 383700 x615 + 423617 x616 + 415645 x617 + 417031 x618 + 367854 x619
       + 423616 x620 + 389580 x621 + 360763 x622 + 413965 x623 + 439631 x624
       + 366478 x625 + 414845 x626 + 406610 x627 + 428671 x628 + 382364 x629
       + 432232 x630 + 384124 x631 + 425134 x632 + 416129 x633 + 391559 x634
       + 400057 x635 + 384932 x636 + 430025 x637 + 377860 x638 + 439174 x639
       + 416194 x640 + 406243 x641 + 396391 x642 + 381284 x643 + 438357 x644
       + 361697 x645 + 419869 x646 + 405677 x647 + 395347 x648 + 376298 x649
       + 377031 x650 + 435870 x651 + 379825 x652 + 410726 x653 + 405479 x654
       + 438842 x655 + 404349 x656 + 397910 x657 + 414377 x658 + 414866 x659
       + 299746 x660
Subject To
 c1:   x10 - x11 - x17 + x25 + x27 - x28 - x31 - x40 - x41 - x45 - x57 + x59
        = 0
 c2:   x70 - x71 - x77 + x85 + x87 - x88 - x91 - x100 - x101 - x105 - x117
       + x119  = 0
 c3:   x130 - x131 - x137 + x145 + x147 - x148 - x151 - x160 - x161 - x165
       - x177 + x179  = 0
 c4:   x190 - x191 - x197 + x205 + x207 - x208 - x211 - x220 - x221 - x225
       - x237 + x239  = -1
 c5:   x250 - x251 - x257 + x265 + x267 - x268 - x271 - x280 - x281 - x285
       - x297 + x299  = 0
 c6:   x310 - x311 - x317 + x325 + x327 - x328 - x331 - x340 - x341 - x345
       - x357 + x359  = 0
 c7:   x370 - x371 - x377 + x385 + x387 - x388 - x391 - x400 - x401 - x405
       - x417 + x419  = 0
 c8:   x430 - x431 - x437 + x445 + x447 - x448 - x451 - x460 - x461 - x465
       - x477 + x479  = 0
 c9:   x490 - x491 - x497 + x505 + x507 - x508 - x511 - x520 - x521 - x525
       - x537 + x539  = -1
 c10:  x550 - x551 - x557 + x565 + x567 - x568 - x571 - x580 - x581 - x585
       - x597 + x599  = 0
 c11:  - x1 + x7 + x16 + x17 + x20 - x22 + x23 - x25 + x29 - x33 + x44 - x48
       - x54  = 0
 c12:  - x61 + x67 + x76 + x77 + x80 - x82 + x83 - x85 + x89 - x93 + x104
       - x108 - x114  = 0
 c13:  - x121 + x127 + x136 + x137 + x140 - x142 + x143 - x145 + x149 - x153
       + x164 - x168 - x174  = -1
 c14:  - x181 + x187 + x196 + x197 + x200 - x202 + x203 - x205 + x209 - x213
       + x224 - x228 - x234  = 0
 c15:  - x241 + x247 + x256 + x257 + x260 - x262 + x263 - x265 + x269 - x273
       + x284 - x288 - x294  = 0
 c16:  - x301 + x307 + x316 + x317 + x320 - x322 + x323 - x325 + x329 - x333
       + x344 - x348 - x354  = 0
 c17:  - x361 + x367 + x376 + x377 + x380 - x382 + x383 - x385 + x389 - x393
       + x404 - x408 - x414  = 0
 c18:  - x421 + x427 + x436 + x437 + x440 - x442 + x443 - x445 + x449 - x453
       + x464 - x468 - x474  = 0
 c19:  - x481 + x487 + x496 + x497 + x500 - x502 + x503 - x505 + x509 - x513
       + x524 - x528 - x534  = 0
 c20:  - x541 + x547 + x556 + x557 + x560 - x562 + x563 - x565 + x569 - x573
       + x584 - x588 - x594  = 0
 c21:  - x2 + x11 - x14 + x19 - x27 + x32 + x36 - x47 - x51 + x60  = 0
 c22:  - x62 + x71 - x74 + x79 - x87 + x92 + x96 - x107 - x111 + x120  = 0
 c23:  - x122 + x131 - x134 + x139 - x147 + x152 + x156 - x167 - x171 + x180
        = 0
 c24:  - x182 + x191 - x194 + x199 - x207 + x212 + x216 - x227 - x231 + x240
        = 0
 c25:  - x242 + x251 - x254 + x259 - x267 + x272 + x276 - x287 - x291 + x300
        = 0
 c26:  - x302 + x311 - x314 + x319 - x327 + x332 + x336 - x347 - x351 + x360
        = 0
 c27:  - x362 + x371 - x374 + x379 - x387 + x392 + x396 - x407 - x411 + x420
        = 0
 c28:  - x422 + x431 - x434 + x439 - x447 + x452 + x456 - x467 - x471 + x480
        = 0
 c29:  - x482 + x491 - x494 + x499 - x507 + x512 + x516 - x527 - x531 + x540
        = 0
 c30:  - x542 + x551 - x554 + x559 - x567 + x572 + x576 - x587 - x591 + x600
        = 1
 c31:  x1 + x3 - x4 - x5 - x19 - x24 - x29 + x34 + x39 + x40 - x50  = 0
 c32:  x61 + x63 - x64 - x65 - x79 - x84 - x89 + x94 + x99 + x100 - x110  = 0
 c33:  x121 + x123 - x124 - x125 - x139 - x144 - x149 + x154 + x159 + x160
       - x170  = 0
 c34:  x181 + x183 - x184 - x185 - x199 - x204 - x209 + x214 + x219 + x220
       - x230  = 0
 c35:  x241 + x243 - x244 - x245 - x259 - x264 - x269 + x274 + x279 + x280
       - x290  = 1
 c36:  x301 + x303 - x304 - x305 - x319 - x324 - x329 + x334 + x339 + x340
       - x350  = 0
 c37:  x361 + x363 - x364 - x365 - x379 - x384 - x389 + x394 + x399 + x400
       - x410  = 0
 c38:  x421 + x423 - x424 - x425 - x439 - x444 - x449 + x454 + x459 + x460
       - x470  = 0
 c39:  x481 + x483 - x484 - x485 - x499 - x504 - x509 + x514 + x519 + x520
       - x530  = 0
 c40:  x541 + x543 - x544 - x545 - x559 - x564 - x569 + x574 + x579 + x580
       - x590  = 0
 c41:  - x3 + x4 - x8 - x10 - x18 + x21 + x28 - x52 + x54 - x58  = 0
 c42:  - x63 + x64 - x68 - x70 - x78 + x81 + x88 - x112 + x114 - x118  = 0
 c43:  - x123 + x124 - x128 - x130 - x138 + x141 + x148 - x172 + x174 - x178
        = 1
 c44:  - x183 + x184 - x188 - x190 - x198 + x201 + x208 - x232 + x234 - x238
        = 0
 c45:  - x243 + x244 - x248 - x250 - x258 + x261 + x268 - x292 + x294 - x298
        = 0
 c46:  - x303 + x304 - x308 - x310 - x318 + x321 + x328 - x352 + x354 - x358
        = 0
 c47:  - x363 + x364 - x368 - x370 - x378 + x381 + x388 - x412 + x414 - x418
        = 0
 c48:  - x423 + x424 - x428 - x430 - x438 + x441 + x448 - x472 + x474 - x478
        = 0
 c49:  - x483 + x484 - x488 - x490 - x498 + x501 + x508 - x532 + x534 - x538
        = 1
 c50:  - x543 + x544 - x548 - x550 - x558 + x561 + x568 - x592 + x594 - x598
        = -1
 c51:  - x23 + x24 + x31 + x33 - x34 - x36 - x37 + x42 + x46 - x49 + x51 + x52
       + x53 - x55 - x59  = 1
 c52:  - x83 + x84 + x91 + x93 - x94 - x96 - x97 + x102 + x106 - x109 + x111
       + x112 + x113 - x115 - x119  = -1
 c53:  - x143 + x144 + x151 + x153 - x154 - x156 - x157 + x162 + x166 - x169
       + x171 + x172 + x173 - x175 - x179  = 0
 c54:  - x203 + x204 + x211 + x213 - x214 - x216 - x217 + x222 + x226 - x229
       + x231 + x232 + x233 - x235 - x239  = 1
 c55:  - x263 + x264 + x271 + x273 - x274 - x276 - x277 + x282 + x286 - x289
       + x291 + x292 + x293 - x295 - x299  = 0
 c56:  - x323 + x324 + x331 + x333 - x334 - x336 - x337 + x342 + x346 - x349
       + x351 + x352 + x353 - x355 - x359  = 0
 c57:  - x383 + x384 + x391 + x393 - x394 - x396 - x397 + x402 + x406 - x409
       + x411 + x412 + x413 - x415 - x419  = 0
 c58:  - x443 + x444 + x451 + x453 - x454 - x456 - x457 + x462 + x466 - x469
       + x471 + x472 + x473 - x475 - x479  = 1
 c59:  - x503 + x504 + x511 + x513 - x514 - x516 - x517 + x522 + x526 - x529
       + x531 + x532 + x533 - x535 - x539  = 0
 c60:  - x563 + x564 + x571 + x573 - x574 - x576 - x577 + x582 + x586 - x589
       + x591 + x592 + x593 - x595 - x599  = 0
 c61:  x6 + x9 - x20 - x30 - x32 - x38 - x39 + x41 - x42 + x43 + x49 + x50  = 0
 c62:  x66 + x69 - x80 - x90 - x92 - x98 - x99 + x101 - x102 + x103 + x109
       + x110  = 0
 c63:  x126 + x129 - x140 - x150 - x152 - x158 - x159 + x161 - x162 + x163
       + x169 + x170  = 0
 c64:  x186 + x189 - x200 - x210 - x212 - x218 - x219 + x221 - x222 + x223
       + x229 + x230  = 0
 c65:  x246 + x249 - x260 - x270 - x272 - x278 - x279 + x281 - x282 + x283
       + x289 + x290  = 0
 c66:  x306 + x309 - x320 - x330 - x332 - x338 - x339 + x341 - x342 + x343
       + x349 + x350  = 0
 c67:  x366 + x369 - x380 - x390 - x392 - x398 - x399 + x401 - x402 + x403
       + x409 + x410  = 1
 c68:  x426 + x429 - x440 - x450 - x452 - x458 - x459 + x461 - x462 + x463
       + x469 + x470  = 0
 c69:  x486 + x489 - x500 - x510 - x512 - x518 - x519 + x521 - x522 + x523
       + x529 + x530  = 0
 c70:  x546 + x549 - x560 - x570 - x572 - x578 - x579 + x581 - x582 + x583
       + x589 + x590  = 0
 c71:  x5 - x6 + x8 - x12 - x13 + x15 - x16 + x35 + x45 - x46 + x47 + x48 + x55
       - x60  = 0
 c72:  x65 - x66 + x68 - x72 - x73 + x75 - x76 + x95 + x105 - x106 + x107
       + x108 + x115 - x120  = 0
 c73:  x125 - x126 + x128 - x132 - x133 + x135 - x136 + x155 + x165 - x166
       + x167 + x168 + x175 - x180  = 0
 c74:  x185 - x186 + x188 - x192 - x193 + x195 - x196 + x215 + x225 - x226
       + x227 + x228 + x235 - x240  = 0
 c75:  x245 - x246 + x248 - x252 - x253 + x255 - x256 + x275 + x285 - x286
       + x287 + x288 + x295 - x300  = 0
 c76:  x305 - x306 + x308 - x312 - x313 + x315 - x316 + x335 + x345 - x346
       + x347 + x348 + x355 - x360  = -1
 c77:  x365 - x366 + x368 - x372 - x373 + x375 - x376 + x395 + x405 - x406
       + x407 + x408 + x415 - x420  = -1
 c78:  x425 - x426 + x428 - x432 - x433 + x435 - x436 + x455 + x465 - x466
       + x467 + x468 + x475 - x480  = -1
 c79:  x485 - x486 + x488 - x492 - x493 + x495 - x496 + x515 + x525 - x526
       + x527 + x528 + x535 - x540  = 0
 c80:  x545 - x546 + x548 - x552 - x553 + x555 - x556 + x575 + x585 - x586
       + x587 + x588 + x595 - x600  = 0
 c81:  x2 + x12 - x15 + x18 - x26 + x30 + x37 - x43 - x44 - x53 + x56 + x57
        = 0
 c82:  x62 + x72 - x75 + x78 - x86 + x90 + x97 - x103 - x104 - x113 + x116
       + x117  = 1
 c83:  x122 + x132 - x135 + x138 - x146 + x150 + x157 - x163 - x164 - x173
       + x176 + x177  = 0
 c84:  x182 + x192 - x195 + x198 - x206 + x210 + x217 - x223 - x224 - x233
       + x236 + x237  = 0
 c85:  x242 + x252 - x255 + x258 - x266 + x270 + x277 - x283 - x284 - x293
       + x296 + x297  = -1
 c86:  x302 + x312 - x315 + x318 - x326 + x330 + x337 - x343 - x344 - x353
       + x356 + x357  = 0
 c87:  x362 + x372 - x375 + x378 - x386 + x390 + x397 - x403 - x404 - x413
       + x416 + x417  = 0
 c88:  x422 + x432 - x435 + x438 - x446 + x450 + x457 - x463 - x464 - x473
       + x476 + x477  = 0
 c89:  x482 + x492 - x495 + x498 - x506 + x510 + x517 - x523 - x524 - x533
       + x536 + x537  = 0
 c90:  x542 + x552 - x555 + x558 - x566 + x570 + x577 - x583 - x584 - x593
       + x596 + x597  = 0
 c91:  - x7 - x9 + x13 + x14 - x21 + x22 + x26 - x35 + x38 - x56 + x58  = -1
 c92:  - x67 - x69 + x73 + x74 - x81 + x82 + x86 - x95 + x98 - x116 + x118  = 0
 c93:  - x127 - x129 + x133 + x134 - x141 + x142 + x146 - x155 + x158 - x176
       + x178  = 0
 c94:  - x187 - x189 + x193 + x194 - x201 + x202 + x206 - x215 + x218 - x236
       + x238  = 0
 c95:  - x247 - x249 + x253 + x254 - x261 + x262 + x266 - x275 + x278 - x296
       + x298  = 0
 c96:  - x307 - x309 + x313 + x314 - x321 + x322 + x326 - x335 + x338 - x356
       + x358  = 1
 c97:  - x367 - x369 + x373 + x374 - x381 + x382 + x386 - x395 + x398 - x416
       + x418  = 0
 c98:  - x427 - x429 + x433 + x434 - x441 + x442 + x446 - x455 + x458 - x476
       + x478  = 0
 c99:  - x487 - x489 + x493 + x494 - x501 + x502 + x506 - x515 + x518 - x536
       + x538  = 0
 c100: - x547 - x549 + x553 + x554 - x561 + x562 + x566 - x575 + x578 - x596
       + x598  = 0
 c101: 4 x1 + 4 x61 + 4 x121 + 4 x181 + 4 x241 + 4 x301 + 4 x361 + 4 x421
       + 4 x481 + 4 x541 - 19 x601 <= 0
 c102: 4 x2 + 4 x62 + 4 x122 + 4 x182 + 4 x242 + 4 x302 + 4 x362 + 4 x422
       + 4 x482 + 4 x542 - 20 x602 <= 0
 c103: 4 x3 + 4 x63 + 4 x123 + 4 x183 + 4 x243 + 4 x303 + 4 x363 + 4 x423
       + 4 x483 + 4 x543 - 19 x603 <= 0
 c104: 4 x4 + 4 x64 + 4 x124 + 4 x184 + 4 x244 + 4 x304 + 4 x364 + 4 x424
       + 4 x484 + 4 x544 - 19 x604 <= 0
 c105: 4 x5 + 4 x65 + 4 x125 + 4 x185 + 4 x245 + 4 x305 + 4 x365 + 4 x425
       + 4 x485 + 4 x545 - 21 x605 <= 0
 c106: 4 x6 + 4 x66 + 4 x126 + 4 x186 + 4 x246 + 4 x306 + 4 x366 + 4 x426
       + 4 x486 + 4 x546 - 19 x606 <= 0
 c107: 4 x7 + 4 x67 + 4 x127 + 4 x187 + 4 x247 + 4 x307 + 4 x367 + 4 x427
       + 4 x487 + 4 x547 - 18 x607 <= 0
 c108: 4 x8 + 4 x68 + 4 x128 + 4 x188 + 4 x248 + 4 x308 + 4 x368 + 4 x428
       + 4 x488 + 4 x548 - 19 x608 <= 0
 c109: 4 x9 + 4 x69 + 4 x129 + 4 x189 + 4 x249 + 4 x309 + 4 x369 + 4 x429
       + 4 x489 + 4 x549 - 21 x609 <= 0
 c110: 4 x10 + 4 x70 + 4 x130 + 4 x190 + 4 x250 + 4 x310 + 4 x370 + 4 x430
       + 4 x490 + 4 x550 - 21 x610 <= 0
 c111: 4 x11 + 4 x71 + 4 x131 + 4 x191 + 4 x251 + 4 x311 + 4 x371 + 4 x431
       + 4 x491 + 4 x551 - 20 x611 <= 0
 c112: 4 x12 + 4 x72 + 4 x132 + 4 x192 + 4 x252 + 4 x312 + 4 x372 + 4 x432
       + 4 x492 + 4 x552 - 19 x612 <= 0
 c113: 4 x13 + 4 x73 + 4 x133 + 4 x193 + 4 x253 + 4 x313 + 4 x373 + 4 x433
       + 4 x493 + 4 x553 - 19 x613 <= 0
 c114: 4 x14 + 4 x74 + 4 x134 + 4 x194 + 4 x254 + 4 x314 + 4 x374 + 4 x434
       + 4 x494 + 4 x554 - 19 x614 <= 0
 c115: 4 x15 + 4 x75 + 4 x135 + 4 x195 + 4 x255 + 4 x315 + 4 x375 + 4 x435
       + 4 x495 + 4 x555 - 18 x615 <= 0
 c116: 4 x16 + 4 x76 + 4 x136 + 4 x196 + 4 x256 + 4 x316 + 4 x376 + 4 x436
       + 4 x496 + 4 x556 - 20 x616 <= 0
 c117: 4 x17 + 4 x77 + 4 x137 + 4 x197 + 4 x257 + 4 x317 + 4 x377 + 4 x437
       + 4 x497 + 4 x557 - 21 x617 <= 0
 c118: 4 x18 + 4 x78 + 4 x138 + 4 x198 + 4 x258 + 4 x318 + 4 x378 + 4 x438
       + 4 x498 + 4 x558 - 19 x618 <= 0
 c119: 4 x19 + 4 x79 + 4 x139 + 4 x199 + 4 x259 + 4 x319 + 4 x379 + 4 x439
       + 4 x499 + 4 x559 - 21 x619 <= 0
 c120: 4 x20 + 4 x80 + 4 x140 + 4 x200 + 4 x260 + 4 x320 + 4 x380 + 4 x440
       + 4 x500 + 4 x560 - 21 x620 <= 0
 c121: 4 x21 + 4 x81 + 4 x141 + 4 x201 + 4 x261 + 4 x321 + 4 x381 + 4 x441
       + 4 x501 + 4 x561 - 19 x621 <= 0
 c122: 4 x22 + 4 x82 + 4 x142 + 4 x202 + 4 x262 + 4 x322 + 4 x382 + 4 x442
       + 4 x502 + 4 x562 - 20 x622 <= 0
 c123: 4 x23 + 4 x83 + 4 x143 + 4 x203 + 4 x263 + 4 x323 + 4 x383 + 4 x443
       + 4 x503 + 4 x563 - 21 x623 <= 0
 c124: 4 x24 + 4 x84 + 4 x144 + 4 x204 + 4 x264 + 4 x324 + 4 x384 + 4 x444
       + 4 x504 + 4 x564 - 21 x624 <= 0
 c125: 4 x25 + 4 x85 + 4 x145 + 4 x205 + 4 x265 + 4 x325 + 4 x385 + 4 x445
       + 4 x505 + 4 x565 - 20 x625 <= 0
 c126: 4 x26 + 4 x86 + 4 x146 + 4 x206 + 4 x266 + 4 x326 + 4 x386 + 4 x446
       + 4 x506 + 4 x566 - 18 x626 <= 0
 c127: 4 x27 + 4 x87 + 4 x147 + 4 x207 + 4 x267 + 4 x327 + 4 x387 + 4 x447
       + 4 x507 + 4 x567 - 22 x627 <= 0
 c128: 4 x28 + 4 x88 + 4 x148 + 4 x208 + 4 x268 + 4 x328 + 4 x388 + 4 x448
       + 4 x508 + 4 x568 - 19 x628 <= 0
 c129: 4 x29 + 4 x89 + 4 x149 + 4 x209 + 4 x269 + 4 x329 + 4 x389 + 4 x449
       + 4 x509 + 4 x569 - 21 x629 <= 0
 c130: 4 x30 + 4 x90 + 4 x150 + 4 x210 + 4 x270 + 4 x330 + 4 x390 + 4 x450
       + 4 x510 + 4 x570 - 20 x630 <= 0
 c131: 4 x31 + 4 x91 + 4 x151 + 4 x211 + 4 x271 + 4 x331 + 4 x391 + 4 x451
       + 4 x511 + 4 x571 - 18 x631 <= 0
 c132: 4 x32 + 4 x92 + 4 x152 + 4 x212 + 4 x272 + 4 x332 + 4 x392 + 4 x452
       + 4 x512 + 4 x572 - 22 x632 <= 0
 c133: 4 x33 + 4 x93 + 4 x153 + 4 x213 + 4 x273 + 4 x333 + 4 x393 + 4 x453
       + 4 x513 + 4 x573 - 19 x633 <= 0
 c134: 4 x34 + 4 x94 + 4 x154 + 4 x214 + 4 x274 + 4 x334 + 4 x394 + 4 x454
       + 4 x514 + 4 x574 - 20 x634 <= 0
 c135: 4 x35 + 4 x95 + 4 x155 + 4 x215 + 4 x275 + 4 x335 + 4 x395 + 4 x455
       + 4 x515 + 4 x575 - 18 x635 <= 0
 c136: 4 x36 + 4 x96 + 4 x156 + 4 x216 + 4 x276 + 4 x336 + 4 x396 + 4 x456
       + 4 x516 + 4 x576 - 19 x636 <= 0
 c137: 4 x37 + 4 x97 + 4 x157 + 4 x217 + 4 x277 + 4 x337 + 4 x397 + 4 x457
       + 4 x517 + 4 x577 - 21 x637 <= 0
 c138: 4 x38 + 4 x98 + 4 x158 + 4 x218 + 4 x278 + 4 x338 + 4 x398 + 4 x458
       + 4 x518 + 4 x578 - 22 x638 <= 0
 c139: 4 x39 + 4 x99 + 4 x159 + 4 x219 + 4 x279 + 4 x339 + 4 x399 + 4 x459
       + 4 x519 + 4 x579 - 20 x639 <= 0
 c140: 4 x40 + 4 x100 + 4 x160 + 4 x220 + 4 x280 + 4 x340 + 4 x400 + 4 x460
       + 4 x520 + 4 x580 - 20 x640 <= 0
 c141: 4 x41 + 4 x101 + 4 x161 + 4 x221 + 4 x281 + 4 x341 + 4 x401 + 4 x461
       + 4 x521 + 4 x581 - 21 x641 <= 0
 c142: 4 x42 + 4 x102 + 4 x162 + 4 x222 + 4 x282 + 4 x342 + 4 x402 + 4 x462
       + 4 x522 + 4 x582 - 21 x642 <= 0
 c143: 4 x43 + 4 x103 + 4 x163 + 4 x223 + 4 x283 + 4 x343 + 4 x403 + 4 x463
       + 4 x523 + 4 x583 - 21 x643 <= 0
 c144: 4 x44 + 4 x104 + 4 x164 + 4 x224 + 4 x284 + 4 x344 + 4 x404 + 4 x464
       + 4 x524 + 4 x584 - 20 x644 <= 0
 c145: 4 x45 + 4 x105 + 4 x165 + 4 x225 + 4 x285 + 4 x345 + 4 x405 + 4 x465
       + 4 x525 + 4 x585 - 20 x645 <= 0
 c146: 4 x46 + 4 x106 + 4 x166 + 4 x226 + 4 x286 + 4 x346 + 4 x406 + 4 x466
       + 4 x526 + 4 x586 - 20 x646 <= 0
 c147: 4 x47 + 4 x107 + 4 x167 + 4 x227 + 4 x287 + 4 x347 + 4 x407 + 4 x467
       + 4 x527 + 4 x587 - 22 x647 <= 0
 c148: 4 x48 + 4 x108 + 4 x168 + 4 x228 + 4 x288 + 4 x348 + 4 x408 + 4 x468
       + 4 x528 + 4 x588 - 20 x648 <= 0
 c149: 4 x49 + 4 x109 + 4 x169 + 4 x229 + 4 x289 + 4 x349 + 4 x409 + 4 x469
       + 4 x529 + 4 x589 - 22 x649 <= 0
 c150: 4 x50 + 4 x110 + 4 x170 + 4 x230 + 4 x290 + 4 x350 + 4 x410 + 4 x470
       + 4 x530 + 4 x590 - 18 x650 <= 0
 c151: 4 x51 + 4 x111 + 4 x171 + 4 x231 + 4 x291 + 4 x351 + 4 x411 + 4 x471
       + 4 x531 + 4 x591 - 18 x651 <= 0
 c152: 4 x52 + 4 x112 + 4 x172 + 4 x232 + 4 x292 + 4 x352 + 4 x412 + 4 x472
       + 4 x532 + 4 x592 - 20 x652 <= 0
 c153: 4 x53 + 4 x113 + 4 x173 + 4 x233 + 4 x293 + 4 x353 + 4 x413 + 4 x473
       + 4 x533 + 4 x593 - 21 x653 <= 0
 c154: 4 x54 + 4 x114 + 4 x174 + 4 x234 + 4 x294 + 4 x354 + 4 x414 + 4 x474
       + 4 x534 + 4 x594 - 20 x654 <= 0
 c155: 4 x55 + 4 x115 + 4 x175 + 4 x235 + 4 x295 + 4 x355 + 4 x415 + 4 x475
       + 4 x535 + 4 x595 - 18 x655 <= 0
 c156: 4 x56 + 4 x116 + 4 x176 + 4 x236 + 4 x296 + 4 x356 + 4 x416 + 4 x476
       + 4 x536 + 4 x596 - 18 x656 <= 0
 c157: 4 x57 + 4 x117 + 4 x177 + 4 x237 + 4 x297 + 4 x357 + 4 x417 + 4 x477
       + 4 x537 + 4 x597 - 20 x657 <= 0
 c158: 4 x58 + 4 x118 + 4 x178 + 4 x238 + 4 x298 + 4 x358 + 4 x418 + 4 x478
       + 4 x538 + 4 x598 - 19 x658 <= 0
 c159: 4 x59 + 4 x119 + 4 x179 + 4 x239 + 4 x299 + 4 x359 + 4 x419 + 4 x479
       + 4 x539 + 4 x599 - 21 x659 <= 0
 c160: 4 x60 + 4 x120 + 4 x180 + 4 x240 + 4 x300 + 4 x360 + 4 x420 + 4 x480
       + 4 x540 + 4 x600 - 27 x660 <= 0
Bounds
 0 <= x1 <= 1
 0 <= x2 <= 1
 0 <= x3 <= 1
 0 <= x4 <= 1
 0 <= x5 <= 1
 0 <= x6 <= 1
 0 <= x7 <= 1
 0 <= x8 <= 1
 0 <= x9 <= 1
 0 <= x10 <= 1
 0 <= x11 <= 1
 0 <= x12 <= 1
 0 <= x13 <= 1
 0 <= x14 <= 1
 0 <= x15 <= 1
 0 <= x16 <= 1
 0 <= x17 <= 1
 0 <= x18 <= 1
 0 <= x19 <= 1
 0 <= x20 <= 1
 0 <= x21 <= 1
 0 <= x22 <= 1
 0 <= x23 <= 1
 0 <= x24 <= 1
 0 <= x25 <= 1
 0 <= x26 <= 1
 0 <= x27 <= 1
 0 <= x28 <= 1
 0 <= x29 <= 1
 0 <= x30 <= 1
 0 <= x31 <= 1
 0 <= x32 <= 1
 0 <= x33 <= 1
 0 <= x34 <= 1
 0 <= x35 <= 1
 0 <= x36 <= 1
 0 <= x37 <= 1
 0 <= x38 <= 1
 0 <= x39 <= 1
 0 <= x40 <= 1
 0 <= x41 <= 1
 0 <= x42 <= 1
 0 <= x43 <= 1
 0 <= x44 <= 1
 0 <= x45 <= 1
 0 <= x46 <= 1
 0 <= x47 <= 1
 0 <= x48 <= 1
 0 <= x49 <= 1
 0 <= x50 <= 1
 0 <= x51 <= 1
 0 <= x52 <= 1
 0 <= x53 <= 1
 0 <= x54 <= 1
 0 <= x55 <= 1
 0 <= x56 <= 1
 0 <= x57 <= 1
 0 <= x58 <= 1
 0 <= x59 <= 1
 0 <= x60 <= 1
 0 <= x61 <= 1
 0 <= x62 <= 1
 0 <= x63 <= 1
 0 <= x64 <= 1
 0 <= x65 <= 1
 0 <= x66 <= 1
 0 <= x67 <= 1
 0 <= x68 <= 1
 0 <= x69 <= 1
 0 <= x70 <= 1
 0 <= x71 <= 1
 0 <= x72 <= 1
 0 <= x73 <= 1
 0 <= x74 <= 1
 0 <= x75 <= 1
 0 <= x76 <= 1
 0 <= x77 <= 1
 0 <= x78 <= 1
 0 <= x79 <= 1
 0 <= x80 <= 1
 0 <= x81 <= 1
 0 <= x82 <= 1
 0 <= x83 <= 1
 0 <= x84 <= 1
 0 <= x85 <= 1
 0 <= x86 <= 1
 0 <= x87 <= 1
 0 <= x88 <= 1
 0 <= x89 <= 1
 0 <= x90 <= 1
 0 <= x91 <= 1
 0 <= x92 <= 1
 0 <= x93 <= 1
 0 <= x94 <= 1
 0 <= x95 <= 1
 0 <= x96 <= 1
 0 <= x97 <= 1
 0 <= x98 <= 1
 0 <= x99 <= 1
 0 <= x100 <= 1
 0 <= x101 <= 1
 0 <= x102 <= 1
 0 <= x103 <= 1
 0 <= x104 <= 1
 0 <= x105 <= 1
 0 <= x106 <= 1
 0 <= x107 <= 1
 0 <= x108 <= 1
 0 <= x109 <= 1
 0 <= x110 <= 1
 0 <= x111 <= 1
 0 <= x112 <= 1
 0 <= x113 <= 1
 0 <= x114 <= 1
 0 <= x115 <= 1
 0 <= x116 <= 1
 0 <= x117 <= 1
 0 <= x118 <= 1
 0 <= x119 <= 1
 0 <= x120 <= 1
 0 <= x121 <= 1
 0 <= x122 <= 1
 0 <= x123 <= 1
 0 <= x124 <= 1
 0 <= x125 <= 1
 0 <= x126 <= 1
 0 <= x127 <= 1
 0 <= x128 <= 1
 0 <= x129 <= 1
 0 <= x130 <= 1
 0 <= x131 <= 1
 0 <= x132 <= 1
 0 <= x133 <= 1
 0 <= x134 <= 1
 0 <= x135 <= 1
 0 <= x136 <= 1
 0 <= x137 <= 1
 0 <= x138 <= 1
 0 <= x139 <= 1
 0 <= x140 <= 1
 0 <= x141 <= 1
 0 <= x142 <= 1
 0 <= x143 <= 1
 0 <= x144 <= 1
 0 <= x145 <= 1
 0 <= x146 <= 1
 0 <= x147 <= 1
 0 <= x148 <= 1
 0 <= x149 <= 1
 0 <= x150 <= 1
 0 <= x151 <= 1
 0 <= x152 <= 1
 0 <= x153 <= 1
 0 <= x154 <= 1
 0 <= x155 <= 1
 0 <= x156 <= 1
 0 <= x157 <= 1
 0 <= x158 <= 1
 0 <= x159 <= 1
 0 <= x160 <= 1
 0 <= x161 <= 1
 0 <= x162 <= 1
 0 <= x163 <= 1
 0 <= x164 <= 1
 0 <= x165 <= 1
 0 <= x166 <= 1
 0 <= x167 <= 1
 0 <= x168 <= 1
 0 <= x169 <= 1
 0 <= x170 <= 1
 0 <= x171 <= 1
 0 <= x172 <= 1
 0 <= x173 <= 1
 0 <= x174 <= 1
 0 <= x175 <= 1
 0 <= x176 <= 1
 0 <= x177 <= 1
 0 <= x178 <= 1
 0 <= x179 <= 1
 0 <= x180 <= 1
 0 <= x181 <= 1
 0 <= x182 <= 1
 0 <= x183 <= 1
 0 <= x184 <= 1
 0 <= x185 <= 1
 0 <= x186 <= 1
 0 <= x187 <= 1
 0 <= x188 <= 1
 0 <= x189 <= 1
 0 <= x190 <= 1
 0 <= x191 <= 1
 0 <= x192 <= 1
 0 <= x193 <= 1
 0 <= x194 <= 1
 0 <= x195 <= 1
 0 <= x196 <= 1
 0 <= x197 <= 1
 0 <= x198 <= 1
 0 <= x199 <= 1
 0 <= x200 <= 1
 0 <= x201 <= 1
 0 <= x202 <= 1
 0 <= x203 <= 1
 0 <= x204 <= 1
 0 <= x205 <= 1
 0 <= x206 <= 1
 0 <= x207 <= 1
 0 <= x208 <= 1
 0 <= x209 <= 1
 0 <= x210 <= 1
 0 <= x211 <= 1
 0 <= x212 <= 1
 0 <= x213 <= 1
 0 <= x214 <= 1
 0 <= x215 <= 1
 0 <= x216 <= 1
 0 <= x217 <= 1
 0 <= x218 <= 1
 0 <= x219 <= 1
 0 <= x220 <= 1
 0 <= x221 <= 1
 0 <= x222 <= 1
 0 <= x223 <= 1
 0 <= x224 <= 1
 0 <= x225 <= 1
 0 <= x226 <= 1
 0 <= x227 <= 1
 0 <= x228 <= 1
 0 <= x229 <= 1
 0 <= x230 <= 1
 0 <= x231 <= 1
 0 <= x232 <= 1
 0 <= x233 <= 1
 0 <= x234 <= 1
 0 <= x235 <= 1
 0 <= x236 <= 1
 0 <= x237 <= 1
 0 <= x238 <= 1
 0 <= x239 <= 1
 0 <= x240 <= 1
 0 <= x241 <= 1
 0 <= x242 <= 1
 0 <= x243 <= 1
 0 <= x244 <= 1
 0 <= x245 <= 1
 0 <= x246 <= 1
 0 <= x247 <= 1
 0 <= x248 <= 1
 0 <= x249 <= 1
 0 <= x250 <= 1
 0 <= x251 <= 1
 0 <= x252 <= 1
 0 <= x253 <= 1
 0 <= x254 <= 1
 0 <= x255 <= 1
 0 <= x256 <= 1
 0 <= x257 <= 1
 0 <= x258 <= 1
 0 <= x259 <= 1
 0 <= x260 <= 1
 0 <= x261 <= 1
 0 <= x262 <= 1
 0 <= x263 <= 1
 0 <= x264 <= 1
 0 <= x265 <= 1
 0 <= x266 <= 1
 0 <= x267 <= 1
 0 <= x268 <= 1
 0 <= x269 <= 1
 0 <= x270 <= 1
 0 <= x271 <= 1
 0 <= x272 <= 1
 0 <= x273 <= 1
 0 <= x274 <= 1
 0 <= x275 <= 1
 0 <= x276 <= 1
 0 <= x277 <= 1
 0 <= x278 <= 1
 0 <= x279 <= 1
 0 <= x280 <= 1
 0 <= x281 <= 1
 0 <= x282 <= 1
 0 <= x283 <= 1
 0 <= x284 <= 1
 0 <= x285 <= 1
 0 <= x286 <= 1
 0 <= x287 <= 1
 0 <= x288 <= 1
 0 <= x289 <= 1
 0 <= x290 <= 1
 0 <= x291 <= 1
 0 <= x292 <= 1
 0 <= x293 <= 1
 0 <= x294 <= 1
 0 <= x295 <= 1
 0 <= x296 <= 1
 0 <= x297 <= 1
 0 <= x298 <= 1
 0 <= x299 <= 1
 0 <= x300 <= 1
 0 <= x301 <= 1
 0 <= x302 <= 1
 0 <= x303 <= 1
 0 <= x304 <= 1
 0 <= x305 <= 1
 0 <= x306 <= 1
 0 <= x307 <= 1
 0 <= x308 <= 1
 0 <= x309 <= 1
 0 <= x310 <= 1
 0 <= x311 <= 1
 0 <= x312 <= 1
 0 <= x313 <= 1
 0 <= x314 <= 1
 0 <= x315 <= 1
 0 <= x316 <= 1
 0 <= x317 <= 1
 0 <= x318 <= 1
 0 <= x319 <= 1
 0 <= x320 <= 1
 0 <= x321 <= 1
 0 <= x322 <= 1
 0 <= x323 <= 1
 0 <= x324 <= 1
 0 <= x325 <= 1
 0 <= x326 <= 1
 0 <= x327 <= 1
 0 <= x328 <= 1
 0 <= x329 <= 1
 0 <= x330 <= 1
 0 <= x331 <= 1
 0 <= x332 <= 1
 0 <= x333 <= 1
 0 <= x334 <= 1
 0 <= x335 <= 1
 0 <= x336 <= 1
 0 <= x337 <= 1
 0 <= x338 <= 1
 0 <= x339 <= 1
 0 <= x340 <= 1
 0 <= x341 <= 1
 0 <= x342 <= 1
 0 <= x343 <= 1
 0 <= x344 <= 1
 0 <= x345 <= 1
 0 <= x346 <= 1
 0 <= x347 <= 1
 0 <= x348 <= 1
 0 <= x349 <= 1
 0 <= x350 <= 1
 0 <= x351 <= 1
 0 <= x352 <= 1
 0 <= x353 <= 1
 0 <= x354 <= 1
 0 <= x355 <= 1
 0 <= x356 <= 1
 0 <= x357 <= 1
 0 <= x358 <= 1
 0 <= x359 <= 1
 0 <= x360 <= 1
 0 <= x361 <= 1
 0 <= x362 <= 1
 0 <= x363 <= 1
 0 <= x364 <= 1
 0 <= x365 <= 1
 0 <= x366 <= 1
 0 <= x367 <= 1
 0 <= x368 <= 1
 0 <= x369 <= 1
 0 <= x370 <= 1
 0 <= x371 <= 1
 0 <= x372 <= 1
 0 <= x373 <= 1
 0 <= x374 <= 1
 0 <= x375 <= 1
 0 <= x376 <= 1
 0 <= x377 <= 1
 0 <= x378 <= 1
 0 <= x379 <= 1
 0 <= x380 <= 1
 0 <= x381 <= 1
 0 <= x382 <= 1
 0 <= x383 <= 1
 0 <= x384 <= 1
 0 <= x385 <= 1
 0 <= x386 <= 1
 0 <= x387 <= 1
 0 <= x388 <= 1
 0 <= x389 <= 1
 0 <= x390 <= 1
 0 <= x391 <= 1
 0 <= x392 <= 1
 0 <= x393 <= 1
 0 <= x394 <= 1
 0 <= x395 <= 1
 0 <= x396 <= 1
 0 <= x397 <= 1
 0 <= x398 <= 1
 0 <= x399 <= 1
 0 <= x400 <= 1
 0 <= x401 <= 1
 0 <= x402 <= 1
 0 <= x403 <= 1
 0 <= x404 <= 1
 0 <= x405 <= 1
 0 <= x406 <= 1
 0 <= x407 <= 1
 0 <= x408 <= 1
 0 <= x409 <= 1
 0 <= x410 <= 1
 0 <= x411 <= 1
 0 <= x412 <= 1
 0 <= x413 <= 1
 0 <= x414 <= 1
 0 <= x415 <= 1
 0 <= x416 <= 1
 0 <= x417 <= 1
 0 <= x418 <= 1
 0 <= x419 <= 1
 0 <= x420 <= 1
 0 <= x421 <= 1
 0 <= x422 <= 1
 0 <= x423 <= 1
 0 <= x424 <= 1
 0 <= x425 <= 1
 0 <= x426 <= 1
 0 <= x427 <= 1
 0 <= x428 <= 1
 0 <= x429 <= 1
 0 <= x430 <= 1
 0 <= x431 <= 1
 0 <= x432 <= 1
 0 <= x433 <= 1
 0 <= x434 <= 1
 0 <= x435 <= 1
 0 <= x436 <= 1
 0 <= x437 <= 1
 0 <= x438 <= 1
 0 <= x439 <= 1
 0 <= x440 <= 1
 0 <= x441 <= 1
 0 <= x442 <= 1
 0 <= x443 <= 1
 0 <= x444 <= 1
 0 <= x445 <= 1
 0 <= x446 <= 1
 0 <= x447 <= 1
 0 <= x448 <= 1
 0 <= x449 <= 1
 0 <= x450 <= 1
 0 <= x451 <= 1
 0 <= x452 <= 1
 0 <= x453 <= 1
 0 <= x454 <= 1
 0 <= x455 <= 1
 0 <= x456 <= 1
 0 <= x457 <= 1
 0 <= x458 <= 1
 0 <= x459 <= 1
 0 <= x460 <= 1
 0 <= x461 <= 1
 0 <= x462 <= 1
 0 <= x463 <= 1
 0 <= x464 <= 1
 0 <= x465 <= 1
 0 <= x466 <= 1
 0 <= x467 <= 1
 0 <= x468 <= 1
 0 <= x469 <= 1
 0 <= x470 <= 1
 0 <= x471 <= 1
 0 <= x472 <= 1
 0 <= x473 <= 1
 0 <= x474 <= 1
 0 <= x475 <= 1
 0 <= x476 <= 1
 0 <= x477 <= 1
 0 <= x478 <= 1
 0 <= x479 <= 1
 0 <= x480 <= 1
 0 <= x481 <= 1
 0 <= x482 <= 1
 0 <= x483 <= 1
 0 <= x484 <= 1
 0 <= x485 <= 1
 0 <= x486 <= 1
 0 <= x487 <= 1
 0 <= x488 <= 1
 0 <= x489 <= 1
 0 <= x490 <= 1
 0 <= x491 <= 1
 0 <= x492 <= 1
 0 <= x493 <= 1
 0 <= x494 <= 1
 0 <= x495 <= 1
 0 <= x496 <= 1
 0 <= x497 <= 1
 0 <= x498 <= 1
 0 <= x499 <= 1
 0 <= x500 <= 1
 0 <= x501 <= 1
 0 <= x502 <= 1
 0 <= x503 <= 1
 0 <= x504 <= 1
 0 <= x505 <= 1
 0 <= x506 <= 1
 0 <= x507 <= 1
 0 <= x508 <= 1
 0 <= x509 <= 1
 0 <= x510 <= 1
 0 <= x511 <= 1
 0 <= x512 <= 1
 0 <= x513 <= 1
 0 <= x514 <= 1
 0 <= x515 <= 1
 0 <= x516 <= 1
 0 <= x517 <= 1
 0 <= x518 <= 1
 0 <= x519 <= 1
 0 <= x520 <= 1
 0 <= x521 <= 1
 0 <= x522 <= 1
 0 <= x523 <= 1
 0 <= x524 <= 1
 0 <= x525 <= 1
 0 <= x526 <= 1
 0 <= x527 <= 1
 0 <= x528 <= 1
 0 <= x529 <= 1
 0 <= x530 <= 1
 0 <= x531 <= 1
 0 <= x532 <= 1
 0 <= x533 <= 1
 0 <= x534 <= 1
 0 <= x535 <= 1
 0 <= x536 <= 1
 0 <= x537 <= 1
 0 <= x538 <= 1
 0 <= x539 <= 1
 0 <= x540 <= 1
 0 <= x541 <= 1
 0 <= x542 <= 1
 0 <= x543 <= 1
 0 <= x544 <= 1
 0 <= x545 <= 1
 0 <= x546 <= 1
 0 <= x547 <= 1
 0 <= x548 <= 1
 0 <= x549 <= 1
 0 <= x550 <= 1
 0 <= x551 <= 1
 0 <= x552 <= 1
 0 <= x553 <= 1
 0 <= x554 <= 1
 0 <= x555 <= 1
 0 <= x556 <= 1
 0 <= x557 <= 1
 0 <= x558 <= 1
 0 <= x559 <= 1
 0 <= x560 <= 1
 0 <= x561 <= 1
 0 <= x562 <= 1
 0 <= x563 <= 1
 0 <= x564 <= 1
 0 <= x565 <= 1
 0 <= x566 <= 1
 0 <= x567 <= 1
 0 <= x568 <= 1
 0 <= x569 <= 1
 0 <= x570 <= 1
 0 <= x571 <= 1
 0 <= x572 <= 1
 0 <= x573 <= 1
 0 <= x574 <= 1
 0 <= x575 <= 1
 0 <= x576 <= 1
 0 <= x577 <= 1
 0 <= x578 <= 1
 0 <= x579 <= 1
 0 <= x580 <= 1
 0 <= x581 <= 1
 0 <= x582 <= 1
 0 <= x583 <= 1
 0 <= x584 <= 1
 0 <= x585 <= 1
 0 <= x586 <= 1
 0 <= x587 <= 1
 0 <= x588 <= 1
 0 <= x589 <= 1
 0 <= x590 <= 1
 0 <= x591 <= 1
 0 <= x592 <= 1
 0 <= x593 <= 1
 0 <= x594 <= 1
 0 <= x595 <= 1
 0 <= x596 <= 1
 0 <= x597 <= 1
 0 <= x598 <= 1
 0 <= x599 <= 1
 0 <= x600 <= 1
 0 <= x601 <= 1
 0 <= x602 <= 1
 0 <= x603 <= 1
 0 <= x604 <= 1
 0 <= x605 <= 1
 0 <= x606 <= 1
 0 <= x607 <= 1
 0 <= x608 <= 1
 0 <= x609 <= 1
 0 <= x610 <= 1
 0 <= x611 <= 1
 0 <= x612 <= 1
 0 <= x613 <= 1
 0 <= x614 <= 1
 0 <= x615 <= 1
 0 <= x616 <= 1
 0 <= x617 <= 1
 0 <= x618 <= 1
 0 <= x619 <= 1
 0 <= x620 <= 1
 0 <= x621 <= 1
 0 <= x622 <= 1
 0 <= x623 <= 1
 0 <= x624 <= 1
 0 <= x625 <= 1
 0 <= x626 <= 1
 0 <= x627 <= 1
 0 <= x628 <= 1
 0 <= x629 <= 1
 0 <= x630 <= 1
 0 <= x631 <= 1
 0 <= x632 <= 1
 0 <= x633 <= 1
 0 <= x634 <= 1
 0 <= x635 <= 1
 0 <= x636 <= 1
 0 <= x637 <= 1
 0 <= x638 <= 1
 0 <= x639 <= 1
 0 <= x640 <= 1
 0 <= x641 <= 1
 0 <= x642 <= 1
 0 <= x643 <= 1
 0 <= x644 <= 1
 0 <= x645 <= 1
 0 <= x646 <= 1
 0 <= x647 <= 1
 0 <= x648 <= 1
 0 <= x649 <= 1
 0 <= x650 <= 1
 0 <= x651 <= 1
 0 <= x652 <= 1
 0 <= x653 <= 1
 0 <= x654 <= 1
 0 <= x655 <= 1
 0 <= x656 <= 1
 0 <= x657 <= 1
 0 <= x658 <= 1
 0 <= x659 <= 1
 0 <= x660 <= 1
Binaries
 x601  x602  x603  x604  x605  x606  x607  x608  x609  x610  x611  x612  x613 
 x614  x615  x616  x617  x618  x619  x620  x621  x622  x623  x624  x625  x626 
 x627  x628  x629  x630  x631  x632  x633  x634  x635  x636  x637  x638  x639 
 x640  x641  x642  x643  x644  x645  x646  x647  x648  x649  x650  x651  x652 
 x653  x654  x655  x656  x657  x658  x659  x660 
End
